# enolA / enolA_c000 / b3lyp_def2svp / solvent=none
! B3LYP def2-SVP RIJCOSX def2/J TightSCF
%pal nprocs 4 end
%maxcore 2500
%scf
  MaxIter 300
end
%tddft
  nroots 18
  tda    true
  maxdim 5
end
* xyz 0 1
C     -6.2773182700    -0.3604747600    -0.3671110800
C     -5.1842447500    -0.3919115600     0.7054595900
C     -5.5840380300     0.5758264100     1.8299401600
C     -5.0960922500    -1.8233797600     1.2566386800
C     -3.8234133600     0.0184140400     0.1675635700
C     -3.6176499400     0.4269760300    -1.1461210300
C     -2.3630075500     0.7921506700    -1.5951419200
C     -1.2567656900     0.7503611100    -0.7480101200
C     -1.4575056100     0.3551166000     0.5750677900
C     -2.7151104800     0.0019312800     1.0154255500
C      0.0619824800     1.1232403600    -1.2671039200
O      0.0472279300     1.8971776400    -2.3459344500
C      1.2340650700     0.6858812400    -0.7080492800
C      2.5075943400     1.0287049800    -1.2714691800
O      2.6103106700     1.7329417800    -2.2990944800
C      3.7263464500     0.4913799800    -0.6302380200
C      3.8068522600     0.1897684800     0.7311642500
C      4.9752674700    -0.2976603800     1.2695857500
C      6.0992757800    -0.5128381000     0.4645468100
O      7.1903888800    -1.0113502700     1.0957300800
C      8.3730490800    -1.2340782800     0.3529125100
C      6.0296455100    -0.2056163700    -0.8926836800
C      4.8584325200     0.3001348700    -1.4198620500
H     -7.2217630300    -0.6755788600     0.0714160700
H     -6.4105446700     0.6436623300    -0.7626319500
H     -6.0428715600    -1.0394493300    -1.1836743400
H     -4.8686824100     0.5507861800     2.6471584200
H     -6.5619495300     0.3063819900     2.2224723000
H     -5.6328181800     1.5943207700     1.4498518700
H     -4.3812095000    -1.8938348400     2.0713338000
H     -6.0682992400    -2.1382424700     1.6289441400
H     -4.7875004200    -2.5104597900     0.4712450200
H     -4.4378929800     0.4672207700    -1.8434023100
H     -2.2247634900     1.1042238800    -2.6194109700
H     -0.6316999900     0.3465997900     1.2690116200
H     -2.8317186600    -0.2911357500     2.0473666600
H      0.9985088100     2.0471100900    -2.6177956400
H      1.2057890900     0.0194964600     0.1332106100
H      2.9639000500     0.3672264500     1.3801796500
H      5.0519843700    -0.5231310600     2.3216873700
H      9.0967685700    -1.6137939200     1.0715872400
H      8.2143143600    -1.9771267400    -0.4336201800
H      8.7466198900    -0.3052363600    -0.0867791300
H      6.8780123900    -0.3522331900    -1.5415813800
H      4.8005236100     0.5487922400    -2.4697843900
*
