# dhhb / dhhb_c131 / b3lyp_631+gd / solvent=ethanol
! B3LYP 6-31+G(d) RIJCOSX def2/J TightSCF CPCM(Ethanol)
%pal nprocs 4 end
%maxcore 2500
%scf
  MaxIter 300
end
%tddft
  nroots 22
  tda    true
  maxdim 5
end
* xyz 0 1
C      7.6142257245     2.0836866729    -0.0492499745
C      8.6093409730     0.9195423295    -0.0800952432
C      7.9826119352    -0.4579632506    -0.3467106696
C      7.0723697184    -0.9727050912     0.7767739453
C      6.4971296345    -2.3771709614     0.5368507306
C      5.4557912596    -2.4754671098    -0.5658640784
O      4.2861675984    -1.7317235095    -0.1550400704
C      3.2862227351    -1.6097312104    -1.0348777733
O      3.3235563551    -2.0728727813    -2.1579168351
C      2.1213125628    -0.8466762791    -0.4864304037
C      1.0261719479    -0.6090427569    -1.3313892959
C     -0.0918864290     0.0813129848    -0.8629751589
C     -0.1304658097     0.5549181719     0.4606717630
C      0.9808790872     0.3384525491     1.2957468962
C      2.0907696127    -0.3665708218     0.8344544906
C     -1.2707020120     1.3767210859     0.9964498654
O     -0.9674908340     2.4124970458     1.6321037747
C     -2.6552624389     0.9881982865     0.7996467734
C     -3.0695486258    -0.2497754203     0.2401539105
C     -4.3950105568    -0.5818296073     0.0618925976
C     -5.4398257075     0.3253415732     0.4447428603
C     -5.0428481458     1.5581059067     1.0226244033
C     -3.6998568739     1.8820861525     1.2170538578
O     -3.4098749363     3.0518897273     1.7982088198
N     -6.7591825490     0.0007366075     0.2809381258
C     -7.1659173549    -1.2724030286    -0.3251539684
C     -7.1514832424    -1.2931052368    -1.8569344799
C     -7.8240985821     0.9389864407     0.6511824494
C     -8.1226339609     2.0235136936    -0.3895658195
H      7.0556701963     2.1544152474    -0.9988718852
H      6.8752231053     1.9762167353     0.7618149100
H      8.1317505001     3.0451018844     0.1039678770
H      9.1651382606     0.8845601419     0.8756222516
H      9.3655934505     1.1174999258    -0.8605360611
H      7.4219586185    -0.4156755967    -1.2990404414
H      8.7928228147    -1.1931105437    -0.5054159610
H      6.2398404855    -0.2683035696     0.9448298739
H      7.6498265196    -0.9908448037     1.7184305333
H      7.3123746537    -3.0755990112     0.2766583168
H      6.0472682444    -2.7607296096     1.4688637675
H      5.1573397894    -3.5215624473    -0.7417920427
H      5.8143150936    -2.0668699187    -1.5233121329
H      1.0626103966    -0.9697384550    -2.3611872533
H     -0.9264304671     0.2732929319    -1.5401200948
H      0.9639922656     0.7243608716     2.3172698535
H      2.9386163572    -0.5455016285     1.4969847303
H     -2.3145249858    -0.9822591276    -0.0490391149
H     -4.6327086488    -1.5496514968    -0.3745295848
H     -5.7708114697     2.2988403846     1.3476370176
H     -2.4130407585     3.0729475282     1.8881812584
H     -6.5297561269    -2.0800043503     0.0690348481
H     -8.1826675985    -1.4872956852     0.0354319681
H     -7.8480725690    -0.5496751048    -2.2743903548
H     -6.1464703318    -1.0810661652    -2.2544978620
H     -7.4573568533    -2.2881070497    -2.2195759337
H     -8.7308575296     0.3421431456     0.8284501041
H     -7.5738231219     1.4040134764     1.6177948047
H     -8.9232990609     2.6842671165    -0.0189847737
H     -7.2373244807     2.6460906577    -0.5926015153
H     -8.4576578338     1.5832923534    -1.3415092043
*
