# enolA / enolA_c004 / b3lyp_631+gd / solvent=ethanol
! B3LYP 6-31+G(d) RIJCOSX def2/J TightSCF CPCM(Ethanol)
%pal nprocs 4 end
%maxcore 2500
%scf
  MaxIter 300
end
%tddft
  nroots 22
  tda    true
  maxdim 5
end
* xyz 0 1
C     -5.6759666382    -0.2631195101    -1.7477584265
C     -5.2058940842     0.4707883851    -0.4824216383
C     -6.2453497241     0.2450709477     0.6198769180
C     -5.1230497144     1.9801146630    -0.7574134169
C     -3.8274711526    -0.0447103113    -0.1025960874
C     -3.5716416959    -0.7205486808     1.0862990567
C     -2.3043927896    -1.1771159600     1.3939205965
C     -1.2342727387    -0.9589866731     0.5281169344
C     -1.4843979318    -0.2939705761    -0.6723579700
C     -2.7556924931     0.1450724701    -0.9759331602
C      0.1015556332    -1.4385020193     0.8957243608
O      0.1224946556    -2.4676661999     1.7335727615
C      1.2523925138    -0.8522522199     0.4380504636
C      2.5448126795    -1.3159300031     0.8524237388
O      2.6775504345    -2.2786443161     1.6397734071
C      3.7450923456    -0.6038875023     0.3658147620
C      3.7763973582     0.1454219254    -0.8131058002
C      4.9293299135     0.7866037370    -1.2026004693
C      6.0894630654     0.7113938215    -0.4238315358
O      7.1599706367     1.3993252683    -0.8904428631
C      8.3615560715     1.3879164482    -0.1435268422
C      6.0726554447    -0.0477765077     0.7443125680
C      4.9145843730    -0.6985097970     1.1188467649
H     -5.7266678410    -1.3345359110    -1.5647840134
H     -6.6654535461     0.0859631179    -2.0341700577
H     -4.9982566615    -0.0908154432    -2.5791962774
H     -6.3828452973    -0.8148488633     0.8197043904
H     -5.9548840317     0.7487060314     1.5389951016
H     -7.2027820026     0.6519040198     0.3013723978
H     -4.4680249461     2.1979684096    -1.5959020385
H     -6.1117602000     2.3692528806    -0.9898579869
H     -4.7436628801     2.5021108732     0.1186741729
H     -4.3622903801    -0.9033267327     1.7948787057
H     -2.1275805450    -1.6996051588     2.3221390231
H     -0.6866709405    -0.1442008550    -1.3832036945
H     -2.9119298415     0.6451659432    -1.9193504916
H      1.0844887666    -2.6734996246     1.9239479756
H      1.1879439863     0.0134815102    -0.1933097294
H      2.9058405362     0.2059590956    -1.4465607116
H      4.9660051588     1.3615964898    -2.1145611343
H      8.2081526118     1.7968781754     0.8587958068
H      9.0497589107     2.0245761866    -0.6959894076
H      8.7742911695     0.3779088246    -0.0715466409
H      6.9504185694    -0.1386964631     1.3634351893
H      4.8961832217    -1.2920298958     2.0217387279
*
