# diketo / diketo_c012 / b3lyp_631+gd / solvent=ethanol
! B3LYP 6-31+G(d) RIJCOSX def2/J TightSCF CPCM(Ethanol)
%pal nprocs 4 end
%maxcore 2500
%scf
  MaxIter 300
end
%tddft
  nroots 22
  tda    true
  maxdim 5
end
* xyz 0 1
C     -4.7481213639    -0.2803802317    -1.9986469934
C     -4.8591294195     0.3387576940    -0.5931262351
C     -5.2718757085     1.8224677007    -0.7463184521
C     -5.9576834901    -0.4219085118     0.1877443496
C     -3.5345898692     0.2574270905     0.1872695327
C     -3.4536669950     0.7802791014     1.4970092710
C     -2.2754012467     0.7215448508     2.2327277587
C     -1.1144163075     0.1338339206     1.6933666928
C     -1.1835249463    -0.3884099148     0.3920071731
C     -2.3709550976    -0.3251228394    -0.3438283206
C      0.1238652160     0.0968774310     2.5286819893
O      0.1323162705     0.5509949139     3.6627000397
C      1.3932914960    -0.5237615534     1.9587123071
C      2.1493014758     0.4416408374     1.0434938621
O      1.7302620143     1.5783622590     0.8714537886
C      3.4015640409    -0.0334140269     0.3966610766
C      4.1020600055     0.8518306657    -0.4437425334
C      5.2818654806     0.4758037819    -1.0805950836
C      5.7944998419    -0.8220891295    -0.8822716091
O      6.9243489852    -1.2875048106    -1.4481485898
C      7.6825430949    -0.4453609620    -2.3086276566
C      5.1038165119    -1.7192789898    -0.0410471828
C      3.9280832639    -1.3298525257     0.5862958151
H     -4.4845718327    -1.3491707045    -1.9569045214
H     -5.7177117488    -0.1962126192    -2.5145240787
H     -3.9959325058     0.2351748412    -2.6167562694
H     -5.4190305694     2.3117925201     0.2288400494
H     -4.5068206402     2.3898400977    -1.3010630586
H     -6.2202165082     1.8939509070    -1.3040764128
H     -5.6899287374    -1.4839559554     0.3118786547
H     -6.9130294907    -0.3730141672    -0.3604024336
H     -6.1233547588     0.0066228796     1.1883648094
H     -4.3314874120     1.2443457538     1.9529301629
H     -2.2326117302     1.1322410950     3.2437625421
H     -0.3112086337    -0.8546806375    -0.0705411701
H     -2.3740379634    -0.7447054664    -1.3499771237
H      1.1846463117    -1.4628411170     1.4234071172
H      2.0465518552    -0.7752468574     2.8096746109
H      3.7002948182     1.8563397777    -0.5928270181
H      5.7956677532     1.1895696509    -1.7249578296
H      8.5441413030    -1.0397657528    -2.6390169090
H      7.0937943392    -0.1362507818    -3.1885880118
H      8.0409027232     0.4522839697    -1.7774062028
H      5.5154028348    -2.7207877797     0.1030946246
H      3.4200873500    -2.0482664153     1.2325658984
*
