60
Coordinates from ORCA-job td.s1
  C           9.52617189990000      2.72080347590000      1.61773018410000
  C           9.04457198230000      1.86438928920000      0.44460253210000
  C           7.57594988360000      1.44244628780000      0.55873941590000
  C           7.08544518920000      0.58804024190000     -0.61467140590000
  C           5.61540785250000      0.17382246090000     -0.49021979060000
  C           5.14737886970000     -0.66226409890000     -1.67512847840000
  O           3.73589927510000     -0.95676568890000     -1.59122222160000
  C           3.35003640320000     -2.05579291600000     -0.92943540290000
  O           4.12213505980000     -2.83652061440000     -0.40889893630000
  C           1.86264643500000     -2.21741484610000     -0.90429855970000
  C           1.32612141580000     -3.34855011210000     -0.26571305690000
  C          -0.05200006970000     -3.54113444710000     -0.21812740500000
  C          -0.92578017780000     -2.59157428360000     -0.77963389740000
  C          -0.38604507900000     -1.46597840640000     -1.42607394580000
  C           0.99644764350000     -1.28319979240000     -1.49425407200000
  C          -2.40225408830000     -2.87782345020000     -0.74911402650000
  O          -2.75623138720000     -4.04119533100000     -1.05036038480000
  C          -3.37041585480000     -1.86319137650000     -0.37757653910000
  C          -3.03230880090000     -0.58060684340000      0.13156581250000
  C          -3.97962694410000      0.35772192740000      0.47806708310000
  C          -5.38054744310000      0.07798925400000      0.33229475550000
  C          -5.73575458530000     -1.20724737950000     -0.15109998820000
  C          -4.77278577600000     -2.16028663270000     -0.48271984810000
  O          -5.18870239090000     -3.35821455460000     -0.90917820970000
  N          -6.32687693730000      1.00688745500000      0.66130511380000
  C          -5.97493756690000      2.36496716580000      1.08723603780000
  C          -5.76280594000000      2.50685467630000      2.59652442520000
  C          -7.76020830180000      0.70636386770000      0.60583039650000
  C          -8.39388029120000      0.95567900560000     -0.76548612830000
  H           9.42731126280000      2.18021105010000      2.57478264870000
  H          10.58499100790000      3.00565433980000      1.50354317980000
  H           8.93748920140000      3.65046435250000      1.70189638110000
  H           9.67608749050000      0.96038903340000      0.36324564880000
  H           9.18930895140000      2.41896928340000     -0.50102976110000
  H           6.94231807020000      2.34563483660000      0.64065512780000
  H           7.42910988500000      0.88394574550000      1.50238975320000
  H           7.71641719200000     -0.31638895180000     -0.69689182910000
  H           7.22989571160000      1.14659587050000     -1.55824760490000
  H           5.46799800510000     -0.40371492490000      0.43866055980000
  H           4.97662863860000      1.07144288620000     -0.41510783620000
  H           5.70726256150000     -1.60651523750000     -1.74233110450000
  H           5.26257876720000     -0.10942824240000     -2.61877325150000
  H           2.00481989130000     -4.07420303140000      0.18686597050000
  H          -0.46554384830000     -4.42951838710000      0.26416491350000
  H          -1.04563824180000     -0.73768586870000     -1.90198396280000
  H           1.40577987840000     -0.41189892260000     -2.00708649360000
  H          -1.98147312880000     -0.32904088960000      0.28287673190000
  H          -3.64492253850000      1.30929941170000      0.88649177560000
  H          -6.77530689560000     -1.50110662680000     -0.28504396990000
  H          -4.35961388020000     -3.90254021010000     -1.04662636330000
  H          -5.08311760960000      2.70179453530000      0.53891913070000
  H          -6.79215862170000      3.02877903710000      0.76441269950000
  H          -6.66492580100000      2.20577252790000      3.15337236420000
  H          -4.92288313460000      1.88545076940000      2.94539695020000
  H          -5.54083644440000      3.55614650460000      2.85044184000000
  H          -8.25454651130000      1.33593234820000      1.36195179250000
  H          -7.92840183550000     -0.33332725720000      0.92431310850000
  H          -8.26453826620000      2.00516354330000     -1.07607658420000
  H          -9.47457386510000      0.74306883110000     -0.72663297700000
  H          -7.94656616750000      0.31212134360000     -1.53923229730000
