# diketo / diketo_c012 / b3lyp_def2svp / solvent=none
! B3LYP def2-SVP RIJCOSX def2/J TightSCF
%pal nprocs 4 end
%maxcore 2500
%scf
  MaxIter 300
end
%tddft
  nroots 18
  tda    true
  maxdim 5
end
* xyz 0 1
C     -4.9768236900    -0.2275318000    -1.8751020300
C     -4.9564652500     0.3840224900    -0.4709620900
C     -5.3392569300     1.8674297600    -0.5874647800
C     -5.9918233200    -0.3549541500     0.3910047300
C     -3.5964931800     0.2776794100     0.1976873700
C     -3.4182593600     0.7992011000     1.4802577400
C     -2.2032282900     0.7201393700     2.1218727900
C     -1.1043305000     0.1061684800     1.5121658000
C     -1.2753203100    -0.4159367500     0.2310613200
C     -2.4975101200    -0.3249235100    -0.4083238800
C      0.1622064000     0.0565798800     2.2578787900
O      0.2821043500     0.5653264000     3.3614271100
C      1.3496169700    -0.6448366400     1.6277398600
C      1.9954020300     0.2091822600     0.5411906900
O      1.4204097700     1.1625214500     0.0460649400
C      3.3548173500    -0.1768403500     0.1306287000
C      4.0662266800     0.7054673700    -0.6867420000
C      5.3480967400     0.4266582300    -1.1104032400
C      5.9565893800    -0.7700967200    -0.7301467400
O      7.2026193800    -1.1528740300    -1.0774347700
C      7.9946571900    -0.2933555400    -1.8773010700
C      5.2444380500    -1.6689340500     0.0752613700
C      3.9709081500    -1.3783391900     0.5013208800
H     -4.7398881300    -1.2883599500    -1.8440501800
H     -5.9721371800    -0.1183371900    -2.3003465900
H     -4.2738009000     0.2789363800    -2.5322500800
H     -5.4159965300     2.3366842300     0.3891906500
H     -4.5903561300     2.4044884100    -1.1659922200
H     -6.2995742900     1.9643987100    -1.0887119800
H     -5.7136433300    -1.4012436800     0.4990119100
H     -6.9705819500    -0.3035615900    -0.0802973500
H     -6.0674517300     0.0821393400     1.3824810200
H     -4.2397802600     1.2784476900     1.9898151500
H     -2.0741028800     1.1301128000     3.1132185800
H     -0.4541429200    -0.8834849200    -0.2889178200
H     -2.5810401000    -0.7376688100    -1.4000006100
H      1.0468316400    -1.5966004100     1.1904828200
H      2.0850561300    -0.8229650200     2.4141565900
H      3.5870970700     1.6290052700    -0.9771590200
H      5.8636426100     1.1399123500    -1.7324726400
H      8.9447921500    -0.8095007900    -1.9996697600
H      7.5369935500    -0.1311534000    -2.8566268400
H      8.1601067400     0.6666028200    -1.3813848100
H      5.7270134200    -2.5927795600     0.3523195500
H      3.4523815400    -2.0968261500     1.1147705700
*
