# Benchmark vs Psi4: enolA_c000, B3LYP/6-31G(d), TDA 12 states, gas phase
# Psi4 reference (4 cores): SCF 158 s + TD-DFT 654 s = 812 s total
! B3LYP 6-31G(d) TightSCF RIJCOSX def2/J
%maxcore 3000
%tddft
  nroots 12
  tda    true
  maxdim 5
end
* xyz 0 1
C     -6.27731827    -0.36047476    -0.36711108
C     -5.18424475    -0.39191156     0.70545959
C     -5.58403803     0.57582641     1.82994016
C     -5.09609225    -1.82337976     1.25663868
C     -3.82341336     0.01841404     0.16756357
C     -3.61764994     0.42697603    -1.14612103
C     -2.36300755     0.79215067    -1.59514192
C     -1.25676569     0.75036111    -0.74801012
C     -1.45750561     0.35511660     0.57506779
C     -2.71511048     0.00193128     1.01542555
C      0.06198248     1.12324036    -1.26710392
O      0.04722793     1.89717764    -2.34593445
C      1.23406507     0.68588124    -0.70804928
C      2.50759434     1.02870498    -1.27146918
O      2.61031067     1.73294178    -2.29909448
C      3.72634645     0.49137998    -0.63023802
C      3.80685226     0.18976848     0.73116425
C      4.97526747    -0.29766038     1.26958575
C      6.09927578    -0.51283810     0.46454681
O      7.19038888    -1.01135027     1.09573008
C      8.37304908    -1.23407828     0.35291251
C      6.02964551    -0.20561637    -0.89268368
C      4.85843252     0.30013487    -1.41986205
H     -7.22176303    -0.67557886     0.07141607
H     -6.41054467     0.64366233    -0.76263195
H     -6.04287156    -1.03944933    -1.18367434
H     -4.86868241     0.55078618     2.64715842
H     -6.56194953     0.30638199     2.22247230
H     -5.63281818     1.59432077     1.44985187
H     -4.38120950    -1.89383484     2.07133380
H     -6.06829924    -2.13824247     1.62894414
H     -4.78750042    -2.51045979     0.47124502
H     -4.43789298     0.46722077    -1.84340231
H     -2.22476349     1.10422388    -2.61941097
H     -0.63169999     0.34659979     1.26901162
H     -2.83171866    -0.29113575     2.04736666
H      0.99850881     2.04711009    -2.61779564
H      1.20578909     0.01949646     0.13321061
H      2.96390005     0.36722645     1.38017965
H      5.05198437    -0.52313106     2.32168737
H      9.09676857    -1.61379392     1.07158724
H      8.21431436    -1.97712674    -0.43362018
H      8.74661989    -0.30523636    -0.08677913
H      6.87801239    -0.35223319    -1.54158138
H      4.80052361     0.54879224    -2.46978439
*
