# geometry optimization: enolB / enolB_c000
! B3LYP def2-SVP RIJCOSX def2/J TightSCF Opt CPCM(Ethanol)
%pal nprocs 4 end
%maxcore 2500
%scf
  MaxIter 300
end
* xyz 0 1
C      8.4022211979    -0.1389586357    -1.5272796735
O      7.1106282614     0.1891831080    -2.0043584146
C      6.0601608483     0.1317164920    -1.1523779164
C      6.1329012797    -0.2421546906     0.1883480987
C      4.9894366676    -0.2579441299     0.9605340434
C      3.7442251484     0.0846657751     0.4299824233
C      3.6820370650     0.4619013898    -0.9161988412
C      4.8173739936     0.4862632094    -1.6903230492
C      2.5681837243     0.0482924064     1.2993099176
O      2.8320641947    -0.0153003606     2.6002114854
C      1.2774835474     0.0631920486     0.8334699273
C      0.1576959719     0.0061943952     1.7248870114
O      0.2956569634    -0.0785220450     2.9646681031
C     -1.2040804641     0.0188063117     1.1442225286
C     -1.5193240168     0.6600114760    -0.0497874574
C     -2.8157622268     0.6544435272    -0.5315664613
C     -3.8422776541     0.0054237172     0.1476595892
C     -5.2749963939    -0.0353266625    -0.3591238693
C     -5.6763650953    -1.4997123682    -0.5936096139
C     -6.1987382200     0.5944632122     0.6944510329
C     -5.4600945750     0.7281556670    -1.6740707742
C     -3.5183291159    -0.6282447844     1.3472297564
C     -2.2320671424    -0.6144059643     1.8420142594
H      8.7077612563     0.5309774452    -0.7188418967
H      8.4460003389    -1.1768522380    -1.1850424997
H      9.0657205131    -0.0079192751    -2.3800531519
H      7.0723823427    -0.5207501734     0.6371881259
H      5.0496611751    -0.5481298203     1.9978900173
H      2.7438511241     0.7577856891    -1.3559158085
H      4.7782726371     0.7827295922    -2.7264592596
H      1.9547605951    -0.0550874577     3.0814064091
H      1.0890069344     0.0681874754    -0.2231113648
H     -0.7586069295     1.1969985085    -0.5959045398
H     -3.0143980982     1.1724842560    -1.4552652222
H     -5.0114487812    -1.9606016990    -1.3212552962
H     -5.6278316941    -2.0762417038     0.3259226697
H     -6.6939080015    -1.5498110821    -0.9746310061
H     -7.2270382418     0.5856296426     0.3399556908
H     -6.1587933289     0.0515724275     1.6344953340
H     -5.9068371554     1.6255846219     0.8832862621
H     -4.8546591985     0.2953635366    -2.4668416054
H     -6.5027509678     0.6717778692    -1.9791477405
H     -5.2013921866     1.7777856532    -1.5567950919
H     -4.2808589366    -1.1412011284     1.9131803454
H     -1.9969273861    -1.1024252443     2.7774221932
*
