# enolB / enolB_c010 / b3lyp_def2svp / solvent=ethanol
! B3LYP def2-SVP RIJCOSX def2/J TightSCF CPCM(Ethanol)
%pal nprocs 4 end
%maxcore 2500
%scf
  MaxIter 300
end
%tddft
  nroots 18
  tda    true
  maxdim 5
end
* xyz 0 1
C      8.2893714200     1.3055778500     1.2458897500
O      7.1190654300     1.7868347500     0.6124264800
C      6.0568043900     0.9569077400     0.4767657000
C      6.0161258200    -0.3689744700     0.9034869100
C      4.8725352700    -1.1181086900     0.7117160500
C      3.7376348200    -0.5718451700     0.1123681700
C      3.7902251900     0.7562229700    -0.3227931900
C      4.9302814100     1.5043306600    -0.1482888600
C      2.5434964400    -1.4035469600    -0.0462360800
O      2.7625808500    -2.7133826900    -0.0514842300
C      1.2788316800    -0.8828959400    -0.1469319200
C      0.1274333800    -1.7295060300    -0.2523019800
O      0.2224746700    -2.9763858500    -0.2714635300
C     -1.2115130700    -1.1007484800    -0.2953972100
C     -1.4425257600     0.1911447900    -0.7590918900
C     -2.7201990100     0.7200291800    -0.7659831400
C     -3.8132848200    -0.0094725800    -0.3084760200
C     -5.2276566900     0.5463475000    -0.2800965500
C     -5.7466555700     0.5130586000     1.1656787000
C     -6.1235925400    -0.3238550400    -1.1745337600
C     -5.3068686900     1.9912707400    -0.7822757400
C     -3.5764313900    -1.3106129300     0.1349533500
C     -2.3077436000    -1.8481358600     0.1362426900
H      8.9809919300     2.1457288300     1.2497186500
H      8.7279454100     0.4730141100     0.6891481400
H      8.0836495700     0.9960262900     2.2741846300
H      6.8667722200    -0.8255634400     1.3829872500
H      4.8439242700    -2.1453600700     1.0419795600
H      2.9427888900     1.1956637400    -0.8240068600
H      4.9836540500     2.5262677500    -0.4893818500
H      1.8702481300    -3.1622503800    -0.1352036200
H      1.1373619000     0.1792345700    -0.0806152700
H     -0.6291679300     0.7858652000    -1.1458253800
H     -2.8507800000     1.7223566800    -1.1392727200
H     -6.7539452800     0.9212379800     1.2083837800
H     -5.1040282500     1.1094670900     1.8101178200
H     -5.7735470500    -0.5006505800     1.5552038300
H     -7.1373356100     0.0702904600    -1.1814552500
H     -6.1594216700    -1.3504990200    -0.8211532700
H     -5.7469179100    -0.3274023400    -2.1953736500
H     -4.9867225900     2.0639910200    -1.8189114500
H     -6.3369647200     2.3362685800    -0.7244150700
H     -4.6968113800     2.6518150400    -0.1707874300
H     -4.3936364700    -1.9214818300     0.4869638200
H     -2.1384471100    -2.8582737200     0.4819575200
*
