# dhhb / dhhb_c000 / camb3lyp_631+gd / solvent=ethanol
! CAM-B3LYP 6-31+G(d) RIJCOSX def2/J TightSCF CPCM(Ethanol)
%pal nprocs 4 end
%maxcore 2500
%scf
  MaxIter 300
end
%tddft
  nroots 22
  tda    true
  maxdim 5
end
* xyz 0 1
C      9.5261718999     2.7208034759     1.6177301841
C      9.0445719823     1.8643892892     0.4446025321
C      7.5759498836     1.4424462878     0.5587394159
C      7.0854451892     0.5880402419    -0.6146714059
C      5.6154078525     0.1738224609    -0.4902197906
C      5.1473788697    -0.6622640989    -1.6751284784
O      3.7358992751    -0.9567656889    -1.5912222216
C      3.3500364032    -2.0557929160    -0.9294354029
O      4.1221350598    -2.8365206144    -0.4088989363
C      1.8626464350    -2.2174148461    -0.9042985597
C      1.3261214158    -3.3485501121    -0.2657130569
C     -0.0520000697    -3.5411344471    -0.2181274050
C     -0.9257801778    -2.5915742836    -0.7796338974
C     -0.3860450790    -1.4659784064    -1.4260739458
C      0.9964476435    -1.2831997924    -1.4942540720
C     -2.4022540883    -2.8778234502    -0.7491140265
O     -2.7562313872    -4.0411953310    -1.0503603848
C     -3.3704158548    -1.8631913765    -0.3775765391
C     -3.0323088009    -0.5806068434     0.1315658125
C     -3.9796269441     0.3577219274     0.4780670831
C     -5.3805474431     0.0779892540     0.3322947555
C     -5.7357545853    -1.2072473795    -0.1510999882
C     -4.7727857760    -2.1602866327    -0.4827198481
O     -5.1887023909    -3.3582145546    -0.9091782097
N     -6.3268769373     1.0068874550     0.6613051138
C     -5.9749375669     2.3649671658     1.0872360378
C     -5.7628059400     2.5068546763     2.5965244252
C     -7.7602083018     0.7063638677     0.6058303965
C     -8.3938802912     0.9556790056    -0.7654861283
H      9.4273112628     2.1802110501     2.5747826487
H     10.5849910079     3.0056543398     1.5035431798
H      8.9374892014     3.6504643525     1.7018963811
H      9.6760874905     0.9603890334     0.3632456488
H      9.1893089514     2.4189692834    -0.5010297611
H      6.9423180702     2.3456348366     0.6406551278
H      7.4291098850     0.8839457455     1.5023897532
H      7.7164171920    -0.3163889518    -0.6968918291
H      7.2298957116     1.1465958705    -1.5582476049
H      5.4679980051    -0.4037149249     0.4386605598
H      4.9766286386     1.0714428862    -0.4151078362
H      5.7072625615    -1.6065152375    -1.7423311045
H      5.2625787672    -0.1094282424    -2.6187732515
H      2.0048198913    -4.0742030314     0.1868659705
H     -0.4655438483    -4.4295183871     0.2641649135
H     -1.0456382418    -0.7376858687    -1.9019839628
H      1.4057798784    -0.4118989226    -2.0070864936
H     -1.9814731288    -0.3290408896     0.2828767319
H     -3.6449225385     1.3092994117     0.8864917756
H     -6.7753068956    -1.5011066268    -0.2850439699
H     -4.3596138802    -3.9025402101    -1.0466263633
H     -5.0831176096     2.7017945353     0.5389191307
H     -6.7921586217     3.0287790371     0.7644126995
H     -6.6649258010     2.2057725279     3.1533723642
H     -4.9228831346     1.8854507694     2.9453969502
H     -5.5408364444     3.5561465046     2.8504418400
H     -8.2545465113     1.3359323482     1.3619517925
H     -7.9284018355    -0.3333272572     0.9243131085
H     -8.2645382662     2.0051635433    -1.0760765842
H     -9.4745738651     0.7430688311    -0.7266329770
H     -7.9465661675     0.3121213436    -1.5392322973
*
