# enolA / enolA_c004 / b3lyp_def2svp / solvent=none
! B3LYP def2-SVP RIJCOSX def2/J TightSCF
%pal nprocs 4 end
%maxcore 2500
%scf
  MaxIter 300
end
%tddft
  nroots 18
  tda    true
  maxdim 5
end
* xyz 0 1
C     -5.6759666400    -0.2631195100    -1.7477584300
C     -5.2058940800     0.4707883900    -0.4824216400
C     -6.2453497200     0.2450709500     0.6198769200
C     -5.1230497100     1.9801146600    -0.7574134200
C     -3.8274711500    -0.0447103100    -0.1025960900
C     -3.5716417000    -0.7205486800     1.0862990600
C     -2.3043927900    -1.1771159600     1.3939206000
C     -1.2342727400    -0.9589866700     0.5281169300
C     -1.4843979300    -0.2939705800    -0.6723579700
C     -2.7556924900     0.1450724700    -0.9759331600
C      0.1015556300    -1.4385020200     0.8957243600
O      0.1224946600    -2.4676662000     1.7335727600
C      1.2523925100    -0.8522522200     0.4380504600
C      2.5448126800    -1.3159300000     0.8524237400
O      2.6775504300    -2.2786443200     1.6397734100
C      3.7450923500    -0.6038875000     0.3658147600
C      3.7763973600     0.1454219300    -0.8131058000
C      4.9293299100     0.7866037400    -1.2026004700
C      6.0894630700     0.7113938200    -0.4238315400
O      7.1599706400     1.3993252700    -0.8904428600
C      8.3615560700     1.3879164500    -0.1435268400
C      6.0726554400    -0.0477765100     0.7443125700
C      4.9145843700    -0.6985098000     1.1188467600
H     -5.7266678400    -1.3345359100    -1.5647840100
H     -6.6654535500     0.0859631200    -2.0341700600
H     -4.9982566600    -0.0908154400    -2.5791962800
H     -6.3828453000    -0.8148488600     0.8197043900
H     -5.9548840300     0.7487060300     1.5389951000
H     -7.2027820000     0.6519040200     0.3013724000
H     -4.4680249500     2.1979684100    -1.5959020400
H     -6.1117602000     2.3692528800    -0.9898579900
H     -4.7436628800     2.5021108700     0.1186741700
H     -4.3622903800    -0.9033267300     1.7948787100
H     -2.1275805400    -1.6996051600     2.3221390200
H     -0.6866709400    -0.1442008600    -1.3832036900
H     -2.9119298400     0.6451659400    -1.9193504900
H      1.0844887700    -2.6734996200     1.9239479800
H      1.1879439900     0.0134815100    -0.1933097300
H      2.9058405400     0.2059591000    -1.4465607100
H      4.9660051600     1.3615964900    -2.1145611300
H      8.2081526100     1.7968781800     0.8587958100
H      9.0497589100     2.0245761900    -0.6959894100
H      8.7742911700     0.3779088200    -0.0715466400
H      6.9504185700    -0.1386964600     1.3634351900
H      4.8961832200    -1.2920299000     2.0217387300
*
