# enolB / enolB_c000 / b3lyp_631+gd / solvent=ethanol
! B3LYP 6-31+G(d) RIJCOSX def2/J TightSCF CPCM(Ethanol)
%pal nprocs 4 end
%maxcore 2500
%scf
  MaxIter 300
end
%tddft
  nroots 22
  tda    true
  maxdim 5
end
* xyz 0 1
C      8.6029047610     0.3946286797    -1.3211171061
O      7.3002552672     0.5791544019    -1.8609253365
C      6.2194253327     0.3388823598    -1.0919827419
C      6.2718852189    -0.0941049621     0.2453994767
C      5.0862660649    -0.3111423331     0.9477194495
C      3.8264348701    -0.1088949742     0.3533620313
C      3.7922764384     0.3253887526    -0.9917041617
C      4.9631148637     0.5454868799    -1.7010929868
C      2.6035599003    -0.3517272891     1.1392065429
O      2.8008264536    -0.7458162449     2.3862660789
C      1.3102974701    -0.1938427190     0.6537151369
C      0.1840128949    -0.4593591976     1.5041707958
O      0.3502920622    -0.8381374375     2.6981795308
C     -1.2135460400    -0.2984868342     0.9987740294
C     -1.5261565897     0.1543845112    -0.2936260151
C     -2.8548753066     0.2828088934    -0.7085302292
C     -3.9275787622    -0.0346195232     0.1431193246
C     -5.4014507476     0.0935653230    -0.2843200284
C     -6.0879091643    -1.2889651079    -0.1736772905
C     -6.1179461430     1.0975641075     0.6501775392
C     -5.5480990988     0.5903074716    -1.7342328748
C     -3.6034565258    -0.4865965988     1.4401043086
C     -2.2826621565    -0.6151229115     1.8591162610
H      8.7778324617     1.0581530718    -0.4573938451
H      8.7656729357    -0.6519801927    -1.0128331962
H      9.3076787891     0.6499786416    -2.1230689396
H      7.2261212201    -0.2634533972     0.7447961579
H      5.1356904985    -0.6465492554     1.9846328135
H      2.8393879652     0.4958326063    -1.4957659999
H      4.9362727356     0.8815672321    -2.7401348740
H      1.8614298432    -0.8672217861     2.7790771668
H      1.1599898814     0.1249365988    -0.3726689426
H     -0.7364909139     0.4182244406    -0.9992371138
H     -3.0429282612     0.6396788481    -1.7214116767
H     -5.6001511980    -2.0260654653    -0.8324125471
H     -6.0606823386    -1.6808269307     0.8548247017
H     -7.1456931820    -1.2107398840    -0.4747693273
H     -7.1763455961     1.1978943234     0.3578614300
H     -6.0898800888     0.7712601765     1.7013702801
H     -5.6518158747     2.0946873083     0.5904748489
H     -5.0755850971    -0.0975578220    -2.4534471142
H     -6.6166454636     0.6597317731    -1.9929582118
H     -5.1064302887     1.5897659024    -1.8748230872
H     -4.3995330856    -0.7458956560     2.1422933363
H     -2.0557660358    -0.9667757912     2.8672670755
*
