# diketo / diketo_c000 / b3lyp_def2svp / solvent=ethanol
! B3LYP def2-SVP RIJCOSX def2/J TightSCF CPCM(Ethanol)
%pal nprocs 4 end
%maxcore 2500
%scf
  MaxIter 300
end
%tddft
  nroots 18
  tda    true
  maxdim 5
end
* xyz 0 1
C     -4.9413530300     1.9642762800     0.2464523000
C     -4.4466744100     0.6180059200    -0.2908116600
C     -5.4995805200    -0.4497759400     0.0432756300
C     -4.2894274700     0.7361662300    -1.8146499100
C     -3.1154474700     0.2006997400     0.3099106600
C     -2.5272991400    -1.0017688000    -0.0853234100
C     -1.3199500500    -1.4289200400     0.4264477200
C     -0.6405004700    -0.6509156800     1.3667304000
C     -1.2262151300     0.5527597400     1.7685430800
C     -2.4354853500     0.9686723400     1.2519907900
C      0.6587575500    -1.0108459400     1.9522949500
O      1.2021993300    -0.3123034400     2.7916259900
C      1.3312830700    -2.2868455300     1.4686532100
C      1.8332935000    -2.1379243300     0.0379549900
O      1.2884858100    -2.7500269400    -0.8663543400
C      2.9625500800    -1.2350109100    -0.2055467100
C      3.3611731200    -1.0347698700    -1.5363529200
C      4.3938487500    -0.1883993800    -1.8484145400
C      5.0758679800     0.4971675300    -0.8339388500
O      6.0719292400     1.3112344200    -1.2405702900
C      6.7963953900     2.0553920600    -0.2774771400
C      4.6924672900     0.2995015600     0.4930240300
C      3.6531272300    -0.5556999500     0.7997616700
H     -5.0959409200     1.9240760800     1.3220193400
H     -4.2386425000     2.7608564300     0.0139852300
H     -5.8929177600     2.2097294300    -0.2199523400
H     -5.2337689500    -1.4153700200    -0.3772051900
H     -6.4655051300    -0.1558807300    -0.3608008000
H     -5.5946248300    -0.5602174400     1.1215291500
H     -3.5173821600     1.4630190400    -2.0587264500
H     -4.0152054700    -0.2151289800    -2.2614782000
H     -5.2260951700     1.0643413700    -2.2591885800
H     -3.0202152200    -1.6279450500    -0.8126803000
H     -0.9094246700    -2.3617903200     0.0756940600
H     -0.7037298500     1.1572367800     2.4958177500
H     -2.8414866600     1.9057750900     1.5941997000
H      2.1688458300    -2.5049088400     2.1316098900
H      0.6191784300    -3.1118396900     1.4942467700
H      2.8275677300    -1.5616525800    -2.3132094400
H      4.6999342100    -0.0288734900    -2.8700197500
H      7.5171754800     2.6377042300    -0.8480602900
H      6.1384667600     2.7282788800     0.2784666800
H      7.3243882900     1.3957848800     0.4159703700
H      5.1990350100     0.8099215800     1.2959525700
H      3.3809022600    -0.6737857500     1.8358656100
*
