# geometry optimization: dhhb / dhhb_c131
! B3LYP def2-SVP RIJCOSX def2/J TightSCF Opt CPCM(Ethanol)
%pal nprocs 4 end
%maxcore 2500
%scf
  MaxIter 300
end
* xyz 0 1
C      7.3232077296     1.9697066310     0.1456274261
C      8.3049725356     0.8272421300    -0.0930191298
C      7.6188551038    -0.4960814096    -0.4380926009
C      6.8058591979    -1.0660847322     0.7237944603
C      6.3053678576    -2.4896453174     0.4696021337
C      5.2349825547    -2.5650521085    -0.6115759896
O      4.0864482530    -1.8322132040    -0.1692288724
C      3.1866922222    -1.4863559396    -1.0840235450
O      3.2867893726    -1.7776422387    -2.2605205577
C      2.0585169498    -0.7101025242    -0.5186499720
C      1.0336564257    -0.3067428207    -1.3735863075
C     -0.0339616429     0.4205768376    -0.8870248048
C     -0.0879146893     0.7609247150     0.4630602005
C      0.9475562686     0.3766780618     1.3110766840
C      2.0090806797    -0.3639778832     0.8303856065
C     -1.1931846547     1.6086494474     1.0018275259
O     -0.8928957274     2.6683080083     1.5825414866
C     -2.5489333472     1.1680192595     0.8264841579
C     -2.8787833009    -0.1045077026     0.3215342582
C     -4.1709837266    -0.5103951061     0.1574675157
C     -5.2619195371     0.3348955625     0.4886850133
C     -4.9396211680     1.5980363877     1.0095341493
C     -3.6330742548     2.0081736830     1.1974608789
O     -3.4353962267     3.2289669176     1.7246372114
N     -6.5462980513    -0.0671772643     0.3356966406
C     -6.8747003601    -1.3879606687    -0.1637284435
C     -6.8288490751    -1.4886555596    -1.6895725671
C     -7.6500004857     0.8475215070     0.5567418351
C     -7.8223941138     1.8677585424    -0.5698132256
H      6.6657965834     2.0932234913    -0.7131740880
H      6.7099902987     1.7823453608     1.0231894898
H      7.8610434389     2.9023957308     0.3014203513
H      8.9249430535     0.6909492451     0.7961225154
H      8.9669866337     1.0995001775    -0.9187159303
H      6.9733412709    -0.3398587677    -1.3050172515
H      8.3852607128    -1.2222126436    -0.7207932786
H      5.9467017590    -0.4255613677     0.9250808406
H      7.4332172560    -1.0778257918     1.6176467168
H      7.1356194795    -3.1285816306     0.1663053172
H      5.8821206607    -2.8892108733     1.3926190888
H      4.9331825344    -3.6032554726    -0.7909824777
H      5.5784698648    -2.1435573668    -1.5612222092
H      1.0964468154    -0.5743690590    -2.4176791515
H     -0.8203046728     0.7423889192    -1.5529416438
H      0.9069160803     0.6626043843     2.3517172387
H      2.8049538216    -0.6707437953     1.4899533759
H     -2.0793754974    -0.7838176231     0.0678212366
H     -4.3423297371    -1.4958848470    -0.2382537232
H     -5.6953193920     2.3050506245     1.3046097497
H     -2.4613845461     3.3616561712     1.8255940964
H     -6.1945755283    -2.1183236189     0.2799988013
H     -7.8810588841    -1.6350925573     0.1806745711
H     -7.5976849197    -0.8657332730    -2.1380936893
H     -5.8619186810    -1.1670326889    -2.0676145949
H     -6.9995669854    -2.5179768459    -1.9936042312
H     -8.5627516880     0.2559008525     0.6429499472
H     -7.5057434634     1.3656916726     1.5085560953
H     -8.6352723437     2.5464015736    -0.3254439375
H     -6.9139535531     2.4476514206    -0.7084983992
H     -8.0568251605     1.3704153873    -1.5066866024
*
