# low-cost baseline: hf_def2svp_cis
! HF def2-SVP TightSCF
%pal nprocs 4 end
%maxcore 2500
%scf
  MaxIter 300
end
%tddft
  nroots 12
  tda    true
  maxdim 5
end
* xyz 0 1
C     -6.2773182737    -0.3604747582    -0.3671110791
C     -5.1842447465    -0.3919115618     0.7054595928
C     -5.5840380333     0.5758264074     1.8299401605
C     -5.0960922498    -1.8233797609     1.2566386753
C     -3.8234133617     0.0184140396     0.1675635676
C     -3.6176499370     0.4269760327    -1.1461210254
C     -2.3630075456     0.7921506674    -1.5951419215
C     -1.2567656860     0.7503611139    -0.7480101184
C     -1.4575056120     0.3551166005     0.5750677894
C     -2.7151104841     0.0019312817     1.0154255532
C      0.0619824791     1.1232403606    -1.2671039233
O      0.0472279260     1.8971776430    -2.3459344496
C      1.2340650694     0.6858812379    -0.7080492827
C      2.5075943350     1.0287049769    -1.2714691765
O      2.6103106720     1.7329417763    -2.2990944826
C      3.7263464513     0.4913799760    -0.6302380230
C      3.8068522591     0.1897684803     0.7311642478
C      4.9752674679    -0.2976603777     1.2695857540
C      6.0992757841    -0.5128381045     0.4645468071
O      7.1903888829    -1.0113502748     1.0957300764
C      8.3730490820    -1.2340782842     0.3529125057
C      6.0296455084    -0.2056163683    -0.8926836837
C      4.8584325169     0.3001348655    -1.4198620512
H     -7.2217630299    -0.6755788621     0.0714160677
H     -6.4105446743     0.6436623251    -0.7626319518
H     -6.0428715613    -1.0394493342    -1.1836743408
H     -4.8686824066     0.5507861766     2.6471584179
H     -6.5619495274     0.3063819852     2.2224723045
H     -5.6328181844     1.5943207691     1.4498518688
H     -4.3812094981    -1.8938348388     2.0713337975
H     -6.0682992422    -2.1382424675     1.6289441410
H     -4.7875004238    -2.5104597920     0.4712450213
H     -4.4378929797     0.4672207744    -1.8434023051
H     -2.2247634869     1.1042238817    -2.6194109650
H     -0.6316999899     0.3465997939     1.2690116240
H     -2.8317186624    -0.2911357537     2.0473666584
H      0.9985088126     2.0471100871    -2.6177956389
H      1.2057890929     0.0194964648     0.1332106066
H      2.9639000518     0.3672264474     1.3801796529
H      5.0519843722    -0.5231310593     2.3216873707
H      9.0967685683    -1.6137939225     1.0715872403
H      8.2143143624    -1.9771267374    -0.4336201767
H      8.7466198925    -0.3052363597    -0.0867791255
H      6.8780123915    -0.3522331868    -1.5415813820
H      4.8005236081     0.5487922396    -2.4697843886
*
