# enolB / enolB_c010 / b3lyp_631+gd / solvent=none
! B3LYP 6-31+G(d) RIJCOSX def2/J TightSCF
%pal nprocs 4 end
%maxcore 2500
%scf
  MaxIter 300
end
%tddft
  nroots 22
  tda    true
  maxdim 5
end
* xyz 0 1
C      8.2893714220     1.3055778487     1.2458897536
O      7.1190654297     1.7868347539     0.6124264773
C      6.0568043875     0.9569077386     0.4767656974
C      6.0161258165    -0.3689744735     0.9034869147
C      4.8725352747    -1.1181086879     0.7117160505
C      3.7376348181    -0.5718451750     0.1123681718
C      3.7902251910     0.7562229678    -0.3227931905
C      4.9302814068     1.5043306631    -0.1482888624
C      2.5434964411    -1.4035469551    -0.0462360839
O      2.7625808456    -2.7133826939    -0.0514842269
C      1.2788316825    -0.8828959409    -0.1469319192
C      0.1274333765    -1.7295060298    -0.2523019779
O      0.2224746705    -2.9763858526    -0.2714635265
C     -1.2115130738    -1.1007484835    -0.2953972072
C     -1.4425257642     0.1911447882    -0.7590918918
C     -2.7201990112     0.7200291763    -0.7659831351
C     -3.8132848221    -0.0094725784    -0.3084760196
C     -5.2276566942     0.5463475000    -0.2800965475
C     -5.7466555718     0.5130586025     1.1656787013
C     -6.1235925357    -0.3238550377    -1.1745337615
C     -5.3068686851     1.9912707416    -0.7822757407
C     -3.5764313890    -1.3106129335     0.1349533545
C     -2.3077435994    -1.8481358595     0.1362426883
H      8.9809919260     2.1457288292     1.2497186492
H      8.7279454133     0.4730141057     0.6891481371
H      8.0836495734     0.9960262913     2.2741846284
H      6.8667722214    -0.8255634352     1.3829872451
H      4.8439242658    -2.1453600749     1.0419795645
H      2.9427888918     1.1956637386    -0.8240068628
H      4.9836540500     2.5262677455    -0.4893818482
H      1.8702481270    -3.1622503810    -0.1352036196
H      1.1373618961     0.1792345697    -0.0806152700
H     -0.6291679268     0.7858651953    -1.1458253781
H     -2.8507800018     1.7223566826    -1.1392727233
H     -6.7539452849     0.9212379769     1.2083837780
H     -5.1040282494     1.1094670864     1.8101178193
H     -5.7735470482    -0.5006505817     1.5552038262
H     -7.1373356125     0.0702904592    -1.1814552498
H     -6.1594216737    -1.3504990220    -0.8211532712
H     -5.7469179127    -0.3274023362    -2.1953736544
H     -4.9867225936     2.0639910248    -1.8189114530
H     -6.3369647216     2.3362685788    -0.7244150700
H     -4.6968113847     2.6518150358    -0.1707874307
H     -4.3936364700    -1.9214818255     0.4869638227
H     -2.1384471111    -2.8582737229     0.4819575222
*
