# geometry optimization: diketo / diketo_c000
! B3LYP def2-SVP RIJCOSX def2/J TightSCF Opt CPCM(Ethanol)
%pal nprocs 4 end
%maxcore 2500
%scf
  MaxIter 300
end
* xyz 0 1
C     -4.9413530318     1.9642762762     0.2464522998
C     -4.4466744114     0.6180059208    -0.2908116584
C     -5.4995805166    -0.4497759399     0.0432756258
C     -4.2894274685     0.7361662341    -1.8146499107
C     -3.1154474651     0.2006997430     0.3099106634
C     -2.5272991369    -1.0017688011    -0.0853234135
C     -1.3199500461    -1.4289200363     0.4264477249
C     -0.6405004719    -0.6509156783     1.3667304012
C     -1.2262151328     0.5527597355     1.7685430841
C     -2.4354853463     0.9686723363     1.2519907875
C      0.6587575508    -1.0108459405     1.9522949461
O      1.2021993274    -0.3123034399     2.7916259914
C      1.3312830673    -2.2868455289     1.4686532058
C      1.8332934994    -2.1379243300     0.0379549930
O      1.2884858064    -2.7500269360    -0.8663543390
C      2.9625500817    -1.2350109059    -0.2055467128
C      3.3611731212    -1.0347698679    -1.5363529171
C      4.3938487487    -0.1883993832    -1.8484145388
C      5.0758679811     0.4971675268    -0.8339388492
O      6.0719292405     1.3112344189    -1.2405702875
C      6.7963953930     2.0553920641    -0.2774771423
C      4.6924672940     0.2995015634     0.4930240266
C      3.6531272337    -0.5556999499     0.7997616737
H     -5.0959409158     1.9240760836     1.3220193360
H     -4.2386425038     2.7608564300     0.0139852254
H     -5.8929177614     2.2097294258    -0.2199523425
H     -5.2337689512    -1.4153700170    -0.3772051902
H     -6.4655051287    -0.1558807311    -0.3608007967
H     -5.5946248322    -0.5602174445     1.1215291455
H     -3.5173821609     1.4630190428    -2.0587264477
H     -4.0152054695    -0.2151289829    -2.2614782033
H     -5.2260951700     1.0643413679    -2.2591885757
H     -3.0202152219    -1.6279450533    -0.8126803028
H     -0.9094246694    -2.3617903151     0.0756940615
H     -0.7037298537     1.1572367753     2.4958177467
H     -2.8414866613     1.9057750927     1.5941996954
H      2.1688458301    -2.5049088415     2.1316098884
H      0.6191784288    -3.1118396944     1.4942467745
H      2.8275677271    -1.5616525844    -2.3132094423
H      4.6999342114    -0.0288734856    -2.8700197532
H      7.5171754761     2.6377042316    -0.8480602918
H      6.1384667558     2.7282788794     0.2784666844
H      7.3243882883     1.3957848837     0.4159703723
H      5.1990350092     0.8099215843     1.2959525731
H      3.3809022554    -0.6737857489     1.8358656095
*
