# geometry optimization: dhhb / dhhb_c000
! B3LYP def2-SVP RIJCOSX def2/J TightSCF Opt CPCM(Ethanol)
%pal nprocs 4 end
%maxcore 2500
%scf
  MaxIter 300
end
* xyz 0 1
C      9.5165794973     2.6674720054     1.4613557628
C      8.9621239532     1.8614241604     0.2921292241
C      7.4976253174     1.4811543284     0.5039402180
C      6.9472845019     0.6636423995    -0.6629690564
C      5.4828719442     0.2839261698    -0.4553922904
C      4.9642630372    -0.5518294285    -1.6230623902
O      3.5722936945    -0.8541802844    -1.4850983182
C      3.2334163407    -1.9289962070    -0.7728003657
O      4.0426269305    -2.6573855688    -0.2342641542
C      1.7692055006    -2.1494146840    -0.7340816840
C      1.2840443134    -3.2921918383    -0.0995960159
C     -0.0717920271    -3.5477653287    -0.0743526738
C     -0.9651634805    -2.6545586877    -0.6606609470
C     -0.4786950671    -1.5134778973    -1.2971570089
C      0.8784484338    -1.2620939822    -1.3362540945
C     -2.4181993303    -2.9915150988    -0.6903574164
O     -2.7509335076    -4.1309013263    -1.0684955524
C     -3.3706425016    -1.9841534468    -0.3126387966
C     -3.0019034053    -0.7846348739     0.3267804881
C     -3.9142878411     0.1752415583     0.6544571879
C     -5.2915914165     0.0222317551     0.3476230173
C     -5.6708861222    -1.1875625318    -0.2549499007
C     -4.7568683543    -2.1792683227    -0.5565446118
O     -5.2255921687    -3.3086254328    -1.1160773683
N     -6.1926056154     0.9879195910     0.6348107429
C     -5.8040467774     2.2864618863     1.1486096838
C     -5.7387287705     2.3071311631     2.6767375899
C     -7.6154908893     0.8003416336     0.4321751308
C     -8.0462310989     1.1482579337    -0.9935851152
H      9.4546540645     2.0933314226     2.3833895807
H     10.5585612607     2.9256495178     1.2868213506
H      8.9513450244     3.5876965328     1.5925368354
H      9.5546464803     0.9523756595     0.1656384344
H      9.0530008847     2.4459280655    -0.6262310485
H      6.9027930631     2.3895346654     0.6228230621
H      7.4053875087     0.9017823762     1.4254278720
H      7.5402387941    -0.2465095309    -0.7767343553
H      7.0429788430     1.2402704425    -1.5854961294
H      5.3767038243    -0.2947292650     0.4651027393
H      4.8712632080     1.1839098106    -0.3637220532
H      5.5254682301    -1.4894437478    -1.6946171362
H      5.0380249116     0.0007260001    -2.5617756894
H      1.9884751930    -3.9721537327     0.3555424897
H     -0.4551588476    -4.4399488806     0.3982744561
H     -1.1679243102    -0.8372355627    -1.7798794240
H      1.2587166068    -0.3844238601    -1.8340690535
H     -1.9658624359    -0.6375434225     0.5916892935
H     -3.5648199100     1.0514336758     1.1720433290
H     -6.6941980154    -1.4011857149    -0.5114162977
H     -4.4620795571    -3.9229792342    -1.2425227344
H     -4.8425330616     2.5790845969     0.7241438912
H     -6.5447809031     3.0134003881     0.8084888669
H     -6.7102215266     2.0680034517     3.1022545695
H     -5.0198136803     1.5775712346     3.0404393482
H     -5.4426795868     3.2941053758     3.0215396140
H     -8.1400914474     1.4482270193     1.1374518127
H     -7.8880339063    -0.2295984427     0.6688574969
H     -7.8024310724     2.1827610959    -1.2230931229
H     -9.1190179721     1.0123819800    -1.0999400673
H     -7.5397367552     0.5106004724    -1.7132492151
*
