# geometry optimization: diketo / diketo_c012
! B3LYP def2-SVP RIJCOSX def2/J TightSCF Opt CPCM(Ethanol)
%pal nprocs 4 end
%maxcore 2500
%scf
  MaxIter 300
end
* xyz 0 1
C     -4.9768236853    -0.2275317991    -1.8751020291
C     -4.9564652535     0.3840224856    -0.4709620917
C     -5.3392569274     1.8674297633    -0.5874647772
C     -5.9918233234    -0.3549541528     0.3910047301
C     -3.5964931816     0.2776794122     0.1976873711
C     -3.4182593558     0.7992010953     1.4802577421
C     -2.2032282883     0.7201393718     2.1218727897
C     -1.1043305049     0.1061684787     1.5121657989
C     -1.2753203050    -0.4159367535     0.2310613240
C     -2.4975101160    -0.3249235136    -0.4083238835
C      0.1622063976     0.0565798766     2.2578787940
O      0.2821043545     0.5653264018     3.3614271149
C      1.3496169658    -0.6448366431     1.6277398586
C      1.9954020312     0.2091822624     0.5411906909
O      1.4204097674     1.1625214485     0.0460649366
C      3.3548173512    -0.1768403485     0.1306286968
C      4.0662266759     0.7054673728    -0.6867420049
C      5.3480967352     0.4266582342    -1.1104032381
C      5.9565893847    -0.7700967250    -0.7301467437
O      7.2026193838    -1.1528740305    -1.0774347687
C      7.9946571865    -0.2933555395    -1.8773010719
C      5.2444380534    -1.6689340542     0.0752613746
C      3.9709081523    -1.3783391950     0.5013208756
H     -4.7398881256    -1.2883599500    -1.8440501840
H     -5.9721371821    -0.1183371869    -2.3003465871
H     -4.2738009047     0.2789363842    -2.5322500782
H     -5.4159965341     2.3366842348     0.3891906496
H     -4.5903561303     2.4044884124    -1.1659922195
H     -6.2995742925     1.9643987126    -1.0887119803
H     -5.7136433332    -1.4012436848     0.4990119054
H     -6.9705819460    -0.3035615878    -0.0802973529
H     -6.0674517310     0.0821393373     1.3824810170
H     -4.2397802594     1.2784476921     1.9898151534
H     -2.0741028794     1.1301127963     3.1132185825
H     -0.4541429229    -0.8834849217    -0.2889178155
H     -2.5810401010    -0.7376688115    -1.4000006069
H      1.0468316437    -1.5966004080     1.1904828160
H      2.0850561308    -0.8229650159     2.4141565852
H      3.5870970708     1.6290052743    -0.9771590164
H      5.8636426133     1.1399123512    -1.7324726375
H      8.9447921492    -0.8095007911    -1.9996697583
H      7.5369935474    -0.1311533990    -2.8566268382
H      8.1601067360     0.6666028171    -1.3813848150
H      5.7270134228    -2.5927795617     0.3523195468
H      3.4523815399    -2.0968261524     1.1147705744
*
