# diketo / diketo_c000 / b3lyp_631+gd / solvent=none
! B3LYP 6-31+G(d) RIJCOSX def2/J TightSCF
%pal nprocs 4 end
%maxcore 2500
%scf
  MaxIter 300
end
%tddft
  nroots 22
  tda    true
  maxdim 5
end
* xyz 0 1
C     -5.4709956342     1.7597022103     0.4418989051
C     -4.8664773089     0.4913451308    -0.1878447721
C     -5.7705041695    -0.7110893324     0.1757865928
C     -4.8454730881     0.6722758927    -1.7246188114
C     -3.4354089581     0.2174585406     0.3100588498
C     -2.7281071581    -0.9065887830    -0.1630458037
C     -1.4354509394    -1.1972741243     0.2698852106
C     -0.7880196994    -0.3590885201     1.1981369335
C     -1.4817396235     0.7696408148     1.6694928640
C     -2.7770801470     1.0493825999     1.2366962844
C      0.5928257391    -0.6102065791     1.7060899258
O      1.1343245856     0.1701150436     2.4752346914
C      1.3378235909    -1.8745842932     1.2579328986
C      1.9572976155    -1.7790283732    -0.1453601734
O      1.3904063024    -2.3104624028    -1.0908331591
C      3.2375291275    -1.0470979578    -0.3245145515
C      3.8158819200    -1.0094048510    -1.6147045411
C      5.0101041286    -0.3480372455    -1.8445697989
C      5.6734506973     0.3091296857    -0.7837841045
O      6.8283245304     0.9245894010    -1.0990022437
C      7.5599401126     1.6145588329    -0.0923216434
C      5.1091432373     0.2866773004     0.5050739746
C      3.9073569454    -0.3892278917     0.7235115339
H     -5.5403651380     1.6808533615     1.5385361778
H     -4.8840930037     2.6596143528     0.1984592367
H     -6.4905916119     1.9124446070     0.0540685529
H     -5.4198305432    -1.6449109767    -0.2902760832
H     -6.8004263266    -0.5280173467    -0.1725183434
H     -5.8021645117    -0.8652560145     1.2667966147
H     -4.2110259918     1.5262024665    -2.0132539663
H     -4.4648740354    -0.2239851248    -2.2382960564
H     -5.8655535197     0.8646712744    -2.0960035150
H     -3.1948424217    -1.5777290437    -0.8875030938
H     -0.9230840956    -2.0694764533    -0.1388465157
H     -0.9868756500     1.4271985667     2.3874082024
H     -3.2758285752     1.9338653878     1.6336574080
H      2.1184149818    -2.0609215114     2.0065553395
H      0.6533607624    -2.7323197940     1.2401140420
H      3.3009752769    -1.5160974129    -2.4334821026
H      5.4616045161    -0.3188656008    -2.8390355606
H      8.4480255871     2.0284595094    -0.5870827703
H      6.9671467592     2.4373651349     0.3412406609
H      7.8764222639     0.9309161920     0.7132505205
H      5.5968919371     0.7895023807     1.3403217329
H      3.4815615337    -0.3762990740     1.7279518780
*
