# enolB / enolB_c000 / b3lyp_def2svp / solvent=ethanol
! B3LYP def2-SVP RIJCOSX def2/J TightSCF CPCM(Ethanol)
%pal nprocs 4 end
%maxcore 2500
%scf
  MaxIter 300
end
%tddft
  nroots 18
  tda    true
  maxdim 5
end
* xyz 0 1
C      8.4022212000    -0.1389586400    -1.5272796700
O      7.1106282600     0.1891831100    -2.0043584100
C      6.0601608500     0.1317164900    -1.1523779200
C      6.1329012800    -0.2421546900     0.1883481000
C      4.9894366700    -0.2579441300     0.9605340400
C      3.7442251500     0.0846657800     0.4299824200
C      3.6820370700     0.4619013900    -0.9161988400
C      4.8173739900     0.4862632100    -1.6903230500
C      2.5681837200     0.0482924100     1.2993099200
O      2.8320641900    -0.0153003600     2.6002114900
C      1.2774835500     0.0631920500     0.8334699300
C      0.1576959700     0.0061944000     1.7248870100
O      0.2956569600    -0.0785220500     2.9646681000
C     -1.2040804600     0.0188063100     1.1442225300
C     -1.5193240200     0.6600114800    -0.0497874600
C     -2.8157622300     0.6544435300    -0.5315664600
C     -3.8422776500     0.0054237200     0.1476595900
C     -5.2749963900    -0.0353266600    -0.3591238700
C     -5.6763651000    -1.4997123700    -0.5936096100
C     -6.1987382200     0.5944632100     0.6944510300
C     -5.4600945700     0.7281556700    -1.6740707700
C     -3.5183291200    -0.6282447800     1.3472297600
C     -2.2320671400    -0.6144059600     1.8420142600
H      8.7077612600     0.5309774500    -0.7188419000
H      8.4460003400    -1.1768522400    -1.1850425000
H      9.0657205100    -0.0079192800    -2.3800531500
H      7.0723823400    -0.5207501700     0.6371881300
H      5.0496611800    -0.5481298200     1.9978900200
H      2.7438511200     0.7577856900    -1.3559158100
H      4.7782726400     0.7827295900    -2.7264592600
H      1.9547606000    -0.0550874600     3.0814064100
H      1.0890069300     0.0681874800    -0.2231113600
H     -0.7586069300     1.1969985100    -0.5959045400
H     -3.0143981000     1.1724842600    -1.4552652200
H     -5.0114487800    -1.9606017000    -1.3212553000
H     -5.6278316900    -2.0762417000     0.3259226700
H     -6.6939080000    -1.5498110800    -0.9746310100
H     -7.2270382400     0.5856296400     0.3399556900
H     -6.1587933300     0.0515724300     1.6344953300
H     -5.9068371600     1.6255846200     0.8832862600
H     -4.8546592000     0.2953635400    -2.4668416100
H     -6.5027509700     0.6717778700    -1.9791477400
H     -5.2013921900     1.7777856500    -1.5567950900
H     -4.2808589400    -1.1412011300     1.9131803500
H     -1.9969273900    -1.1024252400     2.7774221900
*
